set PUNTI := 1 2 3 4 5 6 7 8;

param x1 :=
1 10
2 30
3 14
4 12
5 22
6 11
7 12
8 1;

param x2 :=
1 14
2 11
3 81
4 32
5 21
6 62
7 0
8 71;

param x3 :=
1 2
2 2
3 3
4 3
5 4
6 4
7 5
8 5;

param y :=
1 38
2 52
3 257
4 108
5 106
6 259
7 12
8 356;
